g9 0 1 0 12 20170614 0 4 0 240	# problem ex8_4_4
 17 12 1 0 12	# vars, constraints, objectives, ranges, eqns
 12 1	# nonlinear constraints, objectives
 0 0	# network constraints: nonlinear, linear
 3 15 0	# nonlinear vars in constraints, objectives, both
 0 0 0 1	# linear network variables; functions; arith, flags
 0 0 0 0 0	# discrete variables: binary, integer, nonlinear (b,c,o)
 48 12	# nonzeros in Jacobian, gradients
 0 0	# max name lengths: constraints, variables
 0 0 0 0 0	# common exprs: b,c,o,c1,o1
b
0 0 1
0 1.1 1.3
0 0 1
0 4 6
0 -6 -4
0 2 4
0 -3 -1
0 1 3
0 -2 0
0 0.5 2.5
0 -1.5 0.5
0 0.2 2.2
0 -1.2 0.8
0 0.1 2.1
0 -1.1 0.9
0 0 1
0 0 1
x17
0 0.762250467
1 1.1261384966
2 0.159517864
3 4.343494264
4 -4.313466584
5 3.100750712
6 -2.397724192
7 1.584424234
8 -1.551894266
9 1.199661008
10 0.212540694
11 0.334227446
12 -0.199578662
13 2.096235254
14 0.057466756
15 0.991133039
16 0.639718759
r
4 0
4 0
4 0
4 0
4 0
4 0
4 0
4 0
4 0
4 0
4 0
4 0
C0
o3
v0
o5
n0.1570795
v1
C1
o3
v0
o5
n0.314159
v1
C2
o3
v0
o5
n0.4712385
v1
C3
o3
v0
o5
n0.628318
v1
C4
o3
v0
o5
n0.7853975
v1
C5
o3
v0
o5
n0.942477
v1
C6
o16
o3
v2
o5
n0.1570795
v1
C7
o16
o3
v2
o5
n0.314159
v1
C8
o16
o3
v2
o5
n0.4712385
v1
C9
o16
o3
v2
o5
n0.628318
v1
C10
o16
o3
v2
o5
n0.7853975
v1
C11
o16
o3
v2
o5
n0.942477
v1
O0 0
o54
12
o5
o0
n-5
v3
n2
o5
o0
n5
v4
n2
o5
o0
n-3
v5
n2
o5
o0
n2
v6
n2
o5
o0
n-2
v7
n2
o5
o0
n1
v8
n2
o5
o0
n-1.5
v9
n2
o5
o0
n0.5
v10
n2
o5
o0
n-1.2
v11
n2
o5
o0
n0.2
v12
n2
o5
o0
n-1.1
v13
n2
o5
o0
n0.1
v14
n2
k16
6
18
24
25
26
27
28
29
30
31
32
33
34
35
36
42
J0 4
0 0
1 0
3 -1
15 1
J1 4
0 0
1 0
5 -1
15 1
J2 4
0 0
1 0
7 -1
15 1
J3 4
0 0
1 0
9 -1
15 1
J4 4
0 0
1 0
11 -1
15 1
J5 4
0 0
1 0
13 -1
15 1
J6 4
1 0
2 0
4 -1
16 0.1570795
J7 4
1 0
2 0
6 -1
16 0.314159
J8 4
1 0
2 0
8 -1
16 0.4712385
J9 4
1 0
2 0
10 -1
16 0.628318
J10 4
1 0
2 0
12 -1
16 0.7853975
J11 4
1 0
2 0
14 -1
16 0.942477
G0 12
3 0
4 0
5 0
6 0
7 0
8 0
9 0
10 0
11 0
12 0
13 0
14 0
